Version identifier: 22.1.0.0 | 2022-03-09 | 1a383f8ce
CPXPARAM_Threads                                 1
CPXPARAM_MIP_Strategy_VariableSelect             3
CPXPARAM_TimeLimit                               600
Tried aggregator 1 time.
MIP Presolve eliminated 3 rows and 1218 columns.
Reduced MIP has 2851 rows, 8526 columns, and 36058 nonzeros.
Reduced MIP has 6498 binaries, 2028 generals, 0 SOSs, and 0 indicators.
Presolve time = 0.02 sec. (17.22 ticks)
Found incumbent of value 1221.000000 after 0.06 sec. (43.98 ticks)
Probing fixed 0 vars, tightened 2 bounds.
Probing time = 0.04 sec. (27.02 ticks)
Tried aggregator 1 time.
Detecting symmetries...
Reduced MIP has 2851 rows, 8526 columns, and 36058 nonzeros.
Reduced MIP has 6499 binaries, 2027 generals, 0 SOSs, and 0 indicators.
Presolve time = 0.03 sec. (20.08 ticks)
Probing time = 0.01 sec. (9.55 ticks)
Clique table members: 24995.
MIP emphasis: balance optimality and feasibility.
MIP search method: dynamic search.
Parallel mode: none, using 1 thread.
Root relaxation solution time = 0.07 sec. (49.44 ticks)

        Nodes                                         Cuts/
   Node  Left     Objective  IInf  Best Integer    Best Bound    ItCnt     Gap

*     0+    0                         1221.0000        0.0000           100.00%
      0     0        0.0000   462     1221.0000        0.0000     1023  100.00%
*     0+    0                            0.0000        0.0000             0.00%
      0     0        cutoff              0.0000        0.0000     1023    0.00%
Elapsed time = 0.66 sec. (510.91 ticks, tree = 0.01 MB, solutions = 2)

Root node processing (before b&c):
  Real time             =    0.66 sec. (511.27 ticks)
Sequential b&c:
  Real time             =    0.00 sec. (0.00 ticks)
                          ------------
Total (root+branch&cut) =    0.66 sec. (511.27 ticks)
Primal number of violations:	0
Dual number of violations:	0
Status:	Optimal
Time:	0.67
Sequence:
	9
	0
	9
	1
	8
	5
	9
	5
	0
	9
	5
	8
	9
	5
	0
	3
	9
	1
	9
	0
	9
	5
	0
	9
	5
	0
	4
	1
	0
	1
	9
	0
	4
	1
	0
	9
	5
	0
	5
	9
	0
	5
	4
	0
	1
	9
	0
	9
	5
	0
	9
	9
	0
	1
	9
	0
	9
	1
	0
	5
	4
	0
	5
	9
	0
	9
	5
	0
	9
	5
	8
	9
	3
	0
	1
	9
	5
	0
	5
	9
	0
	9
	5
	0
	5
	9
	5
	0
	9
	4
	5
	0
	5
	4
	9
	8
	5
	9
	0
	1
	9
	1
	0
	4
	5
	0
	5
	9
	1
	0
	9
	1
	0
	9
	1
	0
	9
	1
	0
	1
	4
	1
	0
	1
	9
	1
	0
	1
	9
	5
	0
	9
	5
	8
	1
	9
	1
	0
	1
	4
	1
	0
	1
	4
	0
	5
	9
	6
	8
	9
	5
	0
	5
	9
	1
	0
	9
	1
	0
	9
	1
	0
	1
	9
	0
	5
	4
	0
	5
	4
	0
	5
	4
	1
	4
	0
	4
	4
	0
	5
	9
	0
	9
	5
	0
	9
	5
	0
	5
	9
	0
	5
	9
	5
	0
	9
	5
	0
	5
	9
	5
	0
	5
	9
	9
	9
	0
	9
	5
	9
	5
	0
	9
	5
	9
	5
	0
	5
	9
	5
	0
	5
	9
	5
	9
	0
	5
	9
	0
	9
	9
	9
	0
	9
	5
	9
	8
	5
	9
	5
	9
	0
	9
	9
	9
	9
	9
	9
	0
	9
	9
	0
	9
	9
	8
	9
	9
	9
	8
	3
	9
	4
	9
	8
	5
	9
	8
	9
	9
	9
	5
	0
	9
	5
	9
	5
	8
	3
	9
	9
	9
	9
	9
	5
	9
	0
	9
	9
	5
	9
	9
	0
	1
	9
	9
	9
	0
	9
	9
	5
	0
	9
	9
	0
	9
	5
	0
	1
	9
	1
	0
	3
	9
	5
	9
	0
	5
	9
	5
	0
	5
	9
	0
	5
	9
	0
	9
	1
	2
	1
	9
	3
	0
	9
	1
	0
	1
	9
	5
	0
	5
	9
	0
	5
	9
	5
	0
	5
	9
	8
	5
	9
	5
	0
	9
	5
	8
	9
	5
	0
	9
	9
	0
	9
	9
	9
	9
	0
	9
	9
	9
	9
	9
	0
	3
	9
	1
	0
	9
	9
	9
	9
	9
	0
	9
	9
	0
	9
	9
	9
	0
	9
	9
	8
	9
	9
	0
	9
	9
	9
	9
	9
	2
	9
	5
	8
